Route #1:
Route #2: 55 8
Route #3: 15 29 17 51 51
Route #4: 19 13 57 37 27 12 39
Route #5: 14 16
Route #6: 18 52 33
Route #7: 41 59 38
Route #8: 20 4 49 2 24 58 48 43 9 32 39 23 47
Route #9: 25 46 21 28 30 53 36 44 46
Route #10: 40 40 31 1 10 42 54 22 5 45 6 3

Cost: 1937.7244811682751
